c This is an instance of the exact track of PACE 2020 Challenge, see https://pacechallenge.org/2020/ 
c TYPE: social 
c ORIGIN: networkrepository.com 
c DESCRIPTION: an animal social network. A trophallaxis event was recorded when ants engaged in mandible-to-mandible contact for greater than 1 s. Networks represent two C. pennsylvanicus colonies. Each colony was filmed for approximately 30 minutes for 8 consecutive nights. Citation: Quevillon, Lauren E., et al. "Social, spatial, and temporal organization in a complex insect society." Scientific reports 5 (2015). 
p tdp 41 256
1 2
1 3
1 4
1 5
1 6
1 7
1 16
1 20
1 11
1 37
1 26
1 27
1 35
1 25
1 28
1 13
1 40
1 24
2 21
2 25
2 32
2 27
2 34
3 25
3 20
3 29
3 10
3 35
3 16
3 6
3 33
3 7
3 4
3 24
3 31
4 6
4 22
4 33
4 5
4 40
4 9
4 8
4 11
4 30
5 17
5 28
5 18
5 32
5 26
5 9
5 13
5 10
5 30
5 20
5 12
5 22
5 6
5 25
6 25
6 24
6 9
6 22
6 14
6 27
6 10
6 26
6 21
6 29
6 37
6 8
6 20
6 38
6 23
6 17
6 28
6 31
6 7
6 30
6 41
7 15
7 16
7 10
7 25
7 8
7 27
7 29
7 37
7 21
7 24
7 23
7 22
7 40
7 9
7 26
7 35
8 9
8 10
8 38
8 39
8 21
8 37
8 16
8 20
8 24
8 23
8 15
8 40
8 29
9 25
9 29
9 10
9 27
9 30
9 22
9 38
9 13
9 37
9 17
9 23
9 26
10 31
10 32
10 37
10 15
10 22
10 20
10 38
10 21
11 12
11 13
11 14
11 19
11 29
11 17
11 20
11 35
11 33
11 32
11 30
11 34
12 31
12 22
12 18
12 27
12 29
12 40
12 24
12 23
12 16
12 30
13 19
13 34
13 35
13 27
13 17
13 15
13 16
14 40
14 30
14 15
15 23
15 36
15 26
15 18
15 35
15 16
15 33
16 17
16 32
16 24
16 30
16 41
16 28
16 35
16 18
16 25
16 31
16 27
17 23
17 24
17 28
17 26
17 29
17 27
17 30
17 18
17 31
18 19
18 28
18 26
18 35
18 22
19 28
20 21
20 22
20 33
20 26
20 27
20 39
20 38
20 24
20 30
21 29
21 22
21 23
21 38
21 25
21 28
22 35
22 40
22 32
23 28
23 33
24 30
24 35
24 37
24 40
24 38
24 31
25 26
25 27
25 29
25 30
25 33
25 28
25 38
25 34
25 31
26 27
26 30
26 29
26 32
26 28
26 38
26 34
26 40
27 39
27 32
27 34
27 31
28 29
28 32
29 33
30 33
30 40
32 36
32 35
33 37
34 37
34 38
34 41
34 40
37 38
37 40
38 41
38 39
